NAME mkp
OBJSENSE MAX
ROWS
 N  OBJ
 L  R0      
 L  R1      
COLUMNS
    MARKER    'MARKER'                 'INTORG'
    x(1)      OBJ       16
    x(1)      R0        2
    x(1)      R1        3000
    x(2)      OBJ       19
    x(2)      R0        3
    x(2)      R1        3500
    x(3)      OBJ       23
    x(3)      R0        4
    x(3)      R1        5100
    x(4)      OBJ       28
    x(4)      R0        5
    x(4)      R1        7200
    MARKER    'MARKER'                 'INTEND'
RHS
    RHS1      R0        7
    RHS1      R1        10000
BOUNDS
 BV BND1      x(1)    
 BV BND1      x(2)    
 BV BND1      x(3)    
 BV BND1      x(4)    
ENDATA
